\* Problem: mdvsp *\

Minimize
 obj: + teste

Subject To
 forca: - 5032 Xij(1,1,3) - 5028 Xij(1,1,4) - 5025 Xij(1,1,5)
 - 5073 Xij(1,1,6) - 5070 Xij(1,2,3) - 5067 Xij(1,2,4) - 5026 Xij(1,2,5)
 - 5047 Xij(1,2,6) - 5023 Xij(1,3,1) - 5019 Xij(1,3,2) - 138 Xij(1,3,5)
 - 248 Xij(1,3,6) - 5052 Xij(1,4,1) - 5059 Xij(1,4,2) - 332 Xij(1,4,5)
 - 212 Xij(1,4,6) - 5061 Xij(1,5,1) - 5062 Xij(1,5,2) - 84 Xij(1,5,6)
 - 5053 Xij(1,6,1) - 5023 Xij(1,6,2) - 5032 Xij(2,1,3) - 5028 Xij(2,1,4)
 - 5025 Xij(2,1,5) - 5073 Xij(2,1,6) - 5070 Xij(2,2,3) - 5067 Xij(2,2,4)
 - 5026 Xij(2,2,5) - 5047 Xij(2,2,6) - 5023 Xij(2,3,1) - 5019 Xij(2,3,2)
 - 138 Xij(2,3,5) - 248 Xij(2,3,6) - 5052 Xij(2,4,1) - 5059 Xij(2,4,2)
 - 332 Xij(2,4,5) - 212 Xij(2,4,6) - 5061 Xij(2,5,1) - 5062 Xij(2,5,2)
 - 84 Xij(2,5,6) - 5053 Xij(2,6,1) - 5023 Xij(2,6,2) + teste = -0
 R0(3): + Xij(1,3,1) + Xij(1,3,2) + Xij(1,3,5) + Xij(1,3,6) + Xij(2,3,1)
 + Xij(2,3,2) + Xij(2,3,5) + Xij(2,3,6) = 1
 R0(4): + Xij(1,4,1) + Xij(1,4,2) + Xij(1,4,5) + Xij(1,4,6) + Xij(2,4,1)
 + Xij(2,4,2) + Xij(2,4,5) + Xij(2,4,6) = 1
 R0(5): + Xij(1,5,1) + Xij(1,5,2) + Xij(1,5,6) + Xij(2,5,1) + Xij(2,5,2)
 + Xij(2,5,6) = 1
 R0(6): + Xij(1,6,1) + Xij(1,6,2) + Xij(2,6,1) + Xij(2,6,2) = 1
 R1(1): + Xij(1,1,3) + Xij(1,1,4) + Xij(1,1,5) + Xij(1,1,6) <= 18
 R1(2): + Xij(2,2,3) + Xij(2,2,4) + Xij(2,2,5) + Xij(2,2,6) <= 26
 R2(1,3): + Xij(1,1,3) + Xij(1,2,3) - Xij(1,3,1) - Xij(1,3,2)
 - Xij(1,3,5) - Xij(1,3,6) = -0
 R2(1,4): + Xij(1,1,4) + Xij(1,2,4) - Xij(1,4,1) - Xij(1,4,2)
 - Xij(1,4,5) - Xij(1,4,6) = -0
 R2(1,5): + Xij(1,1,5) + Xij(1,2,5) + Xij(1,3,5) + Xij(1,4,5)
 - Xij(1,5,1) - Xij(1,5,2) - Xij(1,5,6) = -0
 R2(1,6): + Xij(1,1,6) + Xij(1,2,6) + Xij(1,3,6) + Xij(1,4,6)
 + Xij(1,5,6) - Xij(1,6,1) - Xij(1,6,2) = -0
 R2(2,3): + Xij(2,1,3) + Xij(2,2,3) - Xij(2,3,1) - Xij(2,3,2)
 - Xij(2,3,5) - Xij(2,3,6) = -0
 R2(2,4): + Xij(2,1,4) + Xij(2,2,4) - Xij(2,4,1) - Xij(2,4,2)
 - Xij(2,4,5) - Xij(2,4,6) = -0
 R2(2,5): + Xij(2,1,5) + Xij(2,2,5) + Xij(2,3,5) + Xij(2,4,5)
 - Xij(2,5,1) - Xij(2,5,2) - Xij(2,5,6) = -0
 R2(2,6): + Xij(2,1,6) + Xij(2,2,6) + Xij(2,3,6) + Xij(2,4,6)
 + Xij(2,5,6) - Xij(2,6,1) - Xij(2,6,2) = -0

Bounds
 0 <= Xij(1,1,3) <= 1
 0 <= Xij(1,1,4) <= 1
 0 <= Xij(1,1,5) <= 1
 0 <= Xij(1,1,6) <= 1
 0 <= Xij(1,2,3) <= 1
 0 <= Xij(1,2,4) <= 1
 0 <= Xij(1,2,5) <= 1
 0 <= Xij(1,2,6) <= 1
 0 <= Xij(1,3,1) <= 1
 0 <= Xij(1,3,2) <= 1
 0 <= Xij(1,3,5) <= 1
 0 <= Xij(1,3,6) <= 1
 0 <= Xij(1,4,1) <= 1
 0 <= Xij(1,4,2) <= 1
 0 <= Xij(1,4,5) <= 1
 0 <= Xij(1,4,6) <= 1
 0 <= Xij(1,5,1) <= 1
 0 <= Xij(1,5,2) <= 1
 0 <= Xij(1,5,6) <= 1
 0 <= Xij(1,6,1) <= 1
 0 <= Xij(1,6,2) <= 1
 0 <= Xij(2,1,3) <= 1
 0 <= Xij(2,1,4) <= 1
 0 <= Xij(2,1,5) <= 1
 0 <= Xij(2,1,6) <= 1
 0 <= Xij(2,2,3) <= 1
 0 <= Xij(2,2,4) <= 1
 0 <= Xij(2,2,5) <= 1
 0 <= Xij(2,2,6) <= 1
 0 <= Xij(2,3,1) <= 1
 0 <= Xij(2,3,2) <= 1
 0 <= Xij(2,3,5) <= 1
 0 <= Xij(2,3,6) <= 1
 0 <= Xij(2,4,1) <= 1
 0 <= Xij(2,4,2) <= 1
 0 <= Xij(2,4,5) <= 1
 0 <= Xij(2,4,6) <= 1
 0 <= Xij(2,5,1) <= 1
 0 <= Xij(2,5,2) <= 1
 0 <= Xij(2,5,6) <= 1
 0 <= Xij(2,6,1) <= 1
 0 <= Xij(2,6,2) <= 1
 teste = 20387

Generals
 Xij(1,1,3)
 Xij(1,1,4)
 Xij(1,1,5)
 Xij(1,1,6)
 Xij(1,2,3)
 Xij(1,2,4)
 Xij(1,2,5)
 Xij(1,2,6)
 Xij(1,3,1)
 Xij(1,3,2)
 Xij(1,3,5)
 Xij(1,3,6)
 Xij(1,4,1)
 Xij(1,4,2)
 Xij(1,4,5)
 Xij(1,4,6)
 Xij(1,5,1)
 Xij(1,5,2)
 Xij(1,5,6)
 Xij(1,6,1)
 Xij(1,6,2)
 Xij(2,1,3)
 Xij(2,1,4)
 Xij(2,1,5)
 Xij(2,1,6)
 Xij(2,2,3)
 Xij(2,2,4)
 Xij(2,2,5)
 Xij(2,2,6)
 Xij(2,3,1)
 Xij(2,3,2)
 Xij(2,3,5)
 Xij(2,3,6)
 Xij(2,4,1)
 Xij(2,4,2)
 Xij(2,4,5)
 Xij(2,4,6)
 Xij(2,5,1)
 Xij(2,5,2)
 Xij(2,5,6)
 Xij(2,6,1)
 Xij(2,6,2)

End
